1600 3120
1 2 3
1 41 2
2 3 3
2 42 5
3 4 1
3 43 3
4 5 5
4 44 2
5 6 5
5 45 1
6 7 2
6 46 1
7 8 4
7 47 2
8 9 4
8 48 3
9 10 4
9 49 2
10 11 3
10 50 1
11 12 5
11 51 1
12 13 1
12 52 4
13 14 3
13 53 5
14 15 4
14 54 4
15 16 5
15 55 1
16 17 3
16 56 2
17 18 4
17 57 2
18 19 1
18 58 2
19 20 5
19 59 2
20 21 5
20 60 3
21 22 5
21 61 3
22 23 2
22 62 4
23 24 1
23 63 5
24 25 1
24 64 3
25 26 1
25 65 5
26 27 5
26 66 5
27 28 1
27 67 2
28 29 5
28 68 2
29 30 2
29 69 2
30 31 4
30 70 5
31 32 1
31 71 3
32 33 2
32 72 1
33 34 1
33 73 3
34 35 2
34 74 1
35 36 2
35 75 2
36 37 5
36 76 2
37 38 1
37 77 5
38 39 3
38 78 4
39 40 1
39 79 2
40 80 4
41 42 5
41 81 5
42 43 3
42 82 4
43 44 1
43 83 3
44 45 2
44 84 5
45 46 3
45 85 3
46 47 2
46 86 3
47 48 2
47 87 3
48 49 5
48 88 5
49 50 3
49 89 2
50 51 1
50 90 4
51 52 5
51 91 1
52 53 4
52 92 4
53 54 4
53 93 3
54 55 5
54 94 3
55 56 4
55 95 4
56 57 2
56 96 3
57 58 3
57 97 5
58 59 5
58 98 5
59 60 3
59 99 5
60 61 2
60 100 4
61 62 1
61 101 1
62 63 1
62 102 2
63 64 4
63 103 2
64 65 3
64 104 4
65 66 2
65 105 1
66 67 2
66 106 3
67 68 2
67 107 4
68 69 3
68 108 2
69 70 5
69 109 3
70 71 5
70 110 4
71 72 5
71 111 3
72 73 1
72 112 1
73 74 1
73 113 2
74 75 2
74 114 5
75 76 5
75 115 3
76 77 5
76 116 1
77 78 1
77 117 1
78 79 1
78 118 5
79 80 3
79 119 4
80 120 4
81 82 3
81 121 5
82 83 2
82 122 3
83 84 5
83 123 3
84 85 5
84 124 1
85 86 3
85 125 4
86 87 1
86 126 3
87 88 2
87 127 3
88 89 3
88 128 3
89 90 4
89 129 5
90 91 3
90 130 3
91 92 2
91 131 1
92 93 3
92 132 1
93 94 5
93 133 3
94 95 2
94 134 4
95 96 3
95 135 4
96 97 5
96 136 1
97 98 2
97 137 5
98 99 3
98 138 4
99 100 3
99 139 2
100 101 2
100 140 5
101 102 3
101 141 3
102 103 5
102 142 1
103 104 1
103 143 5
104 105 1
104 144 2
105 106 1
105 145 4
106 107 3
106 146 4
107 108 4
107 147 5
108 109 2
108 148 3
109 110 1
109 149 4
110 111 5
110 150 2
111 112 1
111 151 4
112 113 4
112 152 2
113 114 3
113 153 3
114 115 1
114 154 1
115 116 5
115 155 1
116 117 5
116 156 4
117 118 3
117 157 5
118 119 5
118 158 1
119 120 4
119 159 1
120 160 3
121 122 1
121 161 5
122 123 2
122 162 2
123 124 4
123 163 3
124 125 3
124 164 2
125 126 4
125 165 2
126 127 4
126 166 1
127 128 1
127 167 1
128 129 1
128 168 5
129 130 2
129 169 1
130 131 1
130 170 4
131 132 5
131 171 2
132 133 1
132 172 3
133 134 2
133 173 3
134 135 5
134 174 5
135 136 5
135 175 4
136 137 1
136 176 3
137 138 4
137 177 5
138 139 3
138 178 3
139 140 1
139 179 4
140 141 3
140 180 4
141 142 1
141 181 4
142 143 5
142 182 5
143 144 5
143 183 5
144 145 1
144 184 1
145 146 4
145 185 4
146 147 1
146 186 4
147 148 5
147 187 1
148 149 4
148 188 4
149 150 2
149 189 1
150 151 3
150 190 4
151 152 3
151 191 4
152 153 2
152 192 1
153 154 5
153 193 3
154 155 3
154 194 1
155 156 3
155 195 4
156 157 5
156 196 1
157 158 3
157 197 4
158 159 3
158 198 1
159 160 2
159 199 2
160 200 2
161 162 2
161 201 2
162 163 3
162 202 2
163 164 3
163 203 5
164 165 4
164 204 4
165 166 2
165 205 1
166 167 2
166 206 3
167 168 2
167 207 2
168 169 1
168 208 5
169 170 2
169 209 5
170 171 2
170 210 2
171 172 2
171 211 4
172 173 4
172 212 5
173 174 3
173 213 2
174 175 1
174 214 2
175 176 2
175 215 4
176 177 5
176 216 2
177 178 3
177 217 1
178 179 5
178 218 2
179 180 4
179 219 5
180 181 3
180 220 4
181 182 2
181 221 5
182 183 2
182 222 2
183 184 2
183 223 5
184 185 4
184 224 5
185 186 1
185 225 4
186 187 5
186 226 2
187 188 3
187 227 5
188 189 3
188 228 5
189 190 5
189 229 3
190 191 2
190 230 2
191 192 5
191 231 1
192 193 5
192 232 5
193 194 1
193 233 2
194 195 3
194 234 3
195 196 1
195 235 4
196 197 3
196 236 5
197 198 3
197 237 5
198 199 5
198 238 3
199 200 4
199 239 2
200 240 4
201 202 2
201 241 5
202 203 5
202 242 4
203 204 2
203 243 2
204 205 4
204 244 3
205 206 1
205 245 1
206 207 1
206 246 1
207 208 4
207 247 3
208 209 1
208 248 2
209 210 5
209 249 2
210 211 3
210 250 3
211 212 3
211 251 2
212 213 4
212 252 5
213 214 5
213 253 2
214 215 4
214 254 4
215 216 4
215 255 5
216 217 3
216 256 3
217 218 1
217 257 5
218 219 5
218 258 3
219 220 4
219 259 5
220 221 1
220 260 2
221 222 2
221 261 3
222 223 1
222 262 1
223 224 2
223 263 1
224 225 2
224 264 3
225 226 4
225 265 4
226 227 2
226 266 3
227 228 5
227 267 5
228 229 5
228 268 2
229 230 4
229 269 2
230 231 2
230 270 4
231 232 1
231 271 3
232 233 5
232 272 5
233 234 1
233 273 4
234 235 4
234 274 2
235 236 1
235 275 4
236 237 3
236 276 5
237 238 2
237 277 5
238 239 5
238 278 3
239 240 1
239 279 2
240 280 2
241 242 2
241 281 5
242 243 3
242 282 1
243 244 1
243 283 4
244 245 5
244 284 2
245 246 1
245 285 4
246 247 5
246 286 3
247 248 3
247 287 1
248 249 2
248 288 2
249 250 5
249 289 1
250 251 4
250 290 1
251 252 3
251 291 3
252 253 1
252 292 3
253 254 3
253 293 2
254 255 5
254 294 2
255 256 2
255 295 1
256 257 1
256 296 5
257 258 2
257 297 2
258 259 1
258 298 4
259 260 1
259 299 4
260 261 3
260 300 1
261 262 4
261 301 1
262 263 2
262 302 4
263 264 4
263 303 3
264 265 5
264 304 1
265 266 5
265 305 4
266 267 3
266 306 3
267 268 3
267 307 5
268 269 4
268 308 3
269 270 1
269 309 5
270 271 4
270 310 4
271 272 4
271 311 4
272 273 1
272 312 1
273 274 3
273 313 5
274 275 3
274 314 2
275 276 3
275 315 2
276 277 2
276 316 3
277 278 2
277 317 1
278 279 5
278 318 1
279 280 1
279 319 2
280 320 1
281 282 3
281 321 3
282 283 3
282 322 3
283 284 3
283 323 4
284 285 4
284 324 5
285 286 2
285 325 5
286 287 3
286 326 3
287 288 5
287 327 5
288 289 4
288 328 2
289 290 2
289 329 4
290 291 5
290 330 3
291 292 1
291 331 4
292 293 2
292 332 3
293 294 4
293 333 4
294 295 3
294 334 4
295 296 2
295 335 2
296 297 4
296 336 5
297 298 4
297 337 1
298 299 4
298 338 5
299 300 1
299 339 3
300 301 4
300 340 2
301 302 1
301 341 3
302 303 2
302 342 2
303 304 3
303 343 5
304 305 5
304 344 4
305 306 5
305 345 4
306 307 5
306 346 3
307 308 2
307 347 4
308 309 3
308 348 3
309 310 4
309 349 4
310 311 4
310 350 2
311 312 4
311 351 5
312 313 1
312 352 5
313 314 5
313 353 2
314 315 1
314 354 2
315 316 5
315 355 2
316 317 1
316 356 4
317 318 3
317 357 4
318 319 3
318 358 3
319 320 1
319 359 4
320 360 4
321 322 3
321 361 5
322 323 3
322 362 4
323 324 2
323 363 3
324 325 5
324 364 5
325 326 3
325 365 3
326 327 2
326 366 1
327 328 4
327 367 1
328 329 2
328 368 3
329 330 1
329 369 3
330 331 5
330 370 3
331 332 5
331 371 4
332 333 2
332 372 2
333 334 4
333 373 1
334 335 5
334 374 3
335 336 3
335 375 1
336 337 3
336 376 5
337 338 3
337 377 4
338 339 3
338 378 5
339 340 3
339 379 2
340 341 5
340 380 1
341 342 1
341 381 4
342 343 1
342 382 2
343 344 3
343 383 4
344 345 5
344 384 5
345 346 5
345 385 2
346 347 5
346 386 1
347 348 2
347 387 3
348 349 4
348 388 4
349 350 4
349 389 1
350 351 3
350 390 4
351 352 3
351 391 5
352 353 2
352 392 5
353 354 1
353 393 4
354 355 3
354 394 4
355 356 1
355 395 3
356 357 1
356 396 5
357 358 3
357 397 5
358 359 5
358 398 5
359 360 4
359 399 2
360 400 3
361 362 5
361 401 5
362 363 2
362 402 2
363 364 3
363 403 4
364 365 5
364 404 2
365 366 4
365 405 4
366 367 5
366 406 2
367 368 1
367 407 4
368 369 4
368 408 1
369 370 5
369 409 5
370 371 5
370 410 5
371 372 4
371 411 5
372 373 3
372 412 5
373 374 1
373 413 4
374 375 1
374 414 5
375 376 2
375 415 4
376 377 2
376 416 4
377 378 3
377 417 5
378 379 2
378 418 1
379 380 4
379 419 4
380 381 1
380 420 2
381 382 1
381 421 3
382 383 2
382 422 5
383 384 2
383 423 3
384 385 1
384 424 2
385 386 3
385 425 5
386 387 1
386 426 3
387 388 2
387 427 5
388 389 2
388 428 4
389 390 4
389 429 1
390 391 2
390 430 2
391 392 1
391 431 3
392 393 1
392 432 5
393 394 1
393 433 5
394 395 2
394 434 2
395 396 4
395 435 5
396 397 5
396 436 1
397 398 1
397 437 2
398 399 1
398 438 2
399 400 5
399 439 2
400 440 1
401 402 3
401 441 2
402 403 2
402 442 3
403 404 2
403 443 1
404 405 2
404 444 5
405 406 1
405 445 3
406 407 4
406 446 2
407 408 4
407 447 5
408 409 2
408 448 4
409 410 5
409 449 1
410 411 2
410 450 1
411 412 4
411 451 1
412 413 1
412 452 4
413 414 3
413 453 1
414 415 2
414 454 5
415 416 4
415 455 3
416 417 3
416 456 5
417 418 3
417 457 4
418 419 2
418 458 5
419 420 5
419 459 5
420 421 1
420 460 3
421 422 2
421 461 3
422 423 3
422 462 5
423 424 3
423 463 3
424 425 4
424 464 2
425 426 5
425 465 2
426 427 5
426 466 3
427 428 5
427 467 2
428 429 5
428 468 3
429 430 5
429 469 4
430 431 5
430 470 3
431 432 4
431 471 1
432 433 1
432 472 3
433 434 4
433 473 1
434 435 5
434 474 3
435 436 3
435 475 4
436 437 2
436 476 1
437 438 4
437 477 2
438 439 5
438 478 4
439 440 1
439 479 1
440 480 5
441 442 4
441 481 1
442 443 5
442 482 3
443 444 5
443 483 1
444 445 4
444 484 4
445 446 2
445 485 5
446 447 4
446 486 2
447 448 5
447 487 5
448 449 1
448 488 3
449 450 3
449 489 4
450 451 2
450 490 3
451 452 2
451 491 2
452 453 5
452 492 4
453 454 2
453 493 3
454 455 1
454 494 2
455 456 4
455 495 5
456 457 5
456 496 1
457 458 1
457 497 2
458 459 4
458 498 2
459 460 3
459 499 4
460 461 2
460 500 5
461 462 4
461 501 5
462 463 2
462 502 3
463 464 3
463 503 5
464 465 3
464 504 4
465 466 2
465 505 4
466 467 1
466 506 4
467 468 1
467 507 2
468 469 3
468 508 1
469 470 1
469 509 2
470 471 5
470 510 1
471 472 2
471 511 5
472 473 3
472 512 4
473 474 2
473 513 4
474 475 3
474 514 1
475 476 5
475 515 5
476 477 3
476 516 3
477 478 1
477 517 3
478 479 1
478 518 1
479 480 3
479 519 4
480 520 4
481 482 3
481 521 1
482 483 1
482 522 2
483 484 1
483 523 5
484 485 1
484 524 3
485 486 4
485 525 5
486 487 5
486 526 5
487 488 5
487 527 4
488 489 3
488 528 1
489 490 2
489 529 1
490 491 3
490 530 2
491 492 5
491 531 2
492 493 1
492 532 2
493 494 1
493 533 2
494 495 1
494 534 2
495 496 1
495 535 4
496 497 3
496 536 5
497 498 1
497 537 4
498 499 2
498 538 3
499 500 5
499 539 3
500 501 3
500 540 4
501 502 2
501 541 5
502 503 5
502 542 3
503 504 1
503 543 4
504 505 2
504 544 4
505 506 5
505 545 5
506 507 3
506 546 3
507 508 5
507 547 4
508 509 4
508 548 5
509 510 5
509 549 3
510 511 4
510 550 4
511 512 2
511 551 3
512 513 5
512 552 1
513 514 5
513 553 2
514 515 3
514 554 2
515 516 3
515 555 5
516 517 5
516 556 1
517 518 4
517 557 4
518 519 1
518 558 2
519 520 5
519 559 4
520 560 1
521 522 4
521 561 3
522 523 5
522 562 3
523 524 4
523 563 1
524 525 5
524 564 2
525 526 2
525 565 2
526 527 4
526 566 3
527 528 1
527 567 5
528 529 3
528 568 1
529 530 2
529 569 1
530 531 2
530 570 4
531 532 1
531 571 1
532 533 1
532 572 5
533 534 5
533 573 5
534 535 4
534 574 3
535 536 2
535 575 4
536 537 2
536 576 5
537 538 5
537 577 1
538 539 4
538 578 2
539 540 5
539 579 2
540 541 4
540 580 1
541 542 4
541 581 3
542 543 5
542 582 4
543 544 4
543 583 2
544 545 5
544 584 1
545 546 5
545 585 2
546 547 2
546 586 4
547 548 2
547 587 5
548 549 1
548 588 1
549 550 1
549 589 4
550 551 5
550 590 2
551 552 2
551 591 1
552 553 5
552 592 5
553 554 2
553 593 1
554 555 3
554 594 5
555 556 2
555 595 4
556 557 5
556 596 3
557 558 3
557 597 5
558 559 3
558 598 2
559 560 4
559 599 5
560 600 3
561 562 3
561 601 5
562 563 2
562 602 5
563 564 3
563 603 4
564 565 1
564 604 5
565 566 2
565 605 1
566 567 2
566 606 3
567 568 5
567 607 3
568 569 2
568 608 2
569 570 4
569 609 3
570 571 2
570 610 2
571 572 4
571 611 1
572 573 5
572 612 2
573 574 5
573 613 3
574 575 3
574 614 3
575 576 1
575 615 3
576 577 2
576 616 4
577 578 2
577 617 5
578 579 5
578 618 2
579 580 3
579 619 4
580 581 1
580 620 5
581 582 2
581 621 3
582 583 4
582 622 1
583 584 2
583 623 2
584 585 3
584 624 4
585 586 5
585 625 3
586 587 5
586 626 5
587 588 2
587 627 3
588 589 1
588 628 1
589 590 2
589 629 3
590 591 1
590 630 4
591 592 4
591 631 4
592 593 4
592 632 3
593 594 3
593 633 2
594 595 1
594 634 4
595 596 1
595 635 2
596 597 4
596 636 3
597 598 5
597 637 5
598 599 1
598 638 1
599 600 4
599 639 5
600 640 1
601 602 4
601 641 4
602 603 2
602 642 4
603 604 4
603 643 2
604 605 2
604 644 3
605 606 1
605 645 3
606 607 5
606 646 5
607 608 2
607 647 3
608 609 3
608 648 4
609 610 2
609 649 2
610 611 2
610 650 5
611 612 2
611 651 4
612 613 3
612 652 3
613 614 3
613 653 2
614 615 1
614 654 2
615 616 2
615 655 3
616 617 1
616 656 1
617 618 5
617 657 2
618 619 3
618 658 3
619 620 1
619 659 3
620 621 3
620 660 5
621 622 5
621 661 3
622 623 1
622 662 5
623 624 2
623 663 4
624 625 3
624 664 5
625 626 1
625 665 3
626 627 5
626 666 2
627 628 5
627 667 4
628 629 5
628 668 5
629 630 1
629 669 2
630 631 3
630 670 5
631 632 4
631 671 4
632 633 1
632 672 5
633 634 3
633 673 5
634 635 5
634 674 2
635 636 2
635 675 4
636 637 5
636 676 2
637 638 1
637 677 1
638 639 1
638 678 3
639 640 1
639 679 3
640 680 1
641 642 1
641 681 5
642 643 1
642 682 1
643 644 1
643 683 5
644 645 2
644 684 4
645 646 4
645 685 2
646 647 2
646 686 1
647 648 2
647 687 2
648 649 1
648 688 3
649 650 5
649 689 4
650 651 1
650 690 4
651 652 5
651 691 4
652 653 4
652 692 5
653 654 3
653 693 1
654 655 2
654 694 2
655 656 5
655 695 4
656 657 4
656 696 4
657 658 4
657 697 4
658 659 5
658 698 2
659 660 4
659 699 5
660 661 1
660 700 5
661 662 1
661 701 5
662 663 1
662 702 4
663 664 4
663 703 5
664 665 4
664 704 1
665 666 2
665 705 5
666 667 1
666 706 3
667 668 5
667 707 1
668 669 5
668 708 4
669 670 5
669 709 2
670 671 2
670 710 4
671 672 2
671 711 1
672 673 2
672 712 1
673 674 2
673 713 4
674 675 1
674 714 2
675 676 3
675 715 5
676 677 1
676 716 1
677 678 2
677 717 4
678 679 2
678 718 5
679 680 3
679 719 1
680 720 5
681 682 3
681 721 2
682 683 4
682 722 2
683 684 2
683 723 3
684 685 4
684 724 1
685 686 3
685 725 5
686 687 1
686 726 2
687 688 1
687 727 2
688 689 5
688 728 2
689 690 4
689 729 4
690 691 5
690 730 5
691 692 4
691 731 2
692 693 2
692 732 1
693 694 3
693 733 5
694 695 4
694 734 3
695 696 3
695 735 5
696 697 4
696 736 1
697 698 1
697 737 1
698 699 2
698 738 2
699 700 3
699 739 1
700 701 5
700 740 1
701 702 1
701 741 5
702 703 5
702 742 5
703 704 5
703 743 5
704 705 2
704 744 1
705 706 2
705 745 1
706 707 1
706 746 1
707 708 5
707 747 5
708 709 3
708 748 2
709 710 1
709 749 3
710 711 3
710 750 5
711 712 2
711 751 3
712 713 4
712 752 1
713 714 4
713 753 3
714 715 4
714 754 2
715 716 2
715 755 3
716 717 1
716 756 2
717 718 5
717 757 5
718 719 2
718 758 3
719 720 3
719 759 5
720 760 3
721 722 1
721 761 2
722 723 1
722 762 2
723 724 5
723 763 5
724 725 1
724 764 2
725 726 2
725 765 5
726 727 4
726 766 5
727 728 2
727 767 2
728 729 5
728 768 5
729 730 5
729 769 2
730 731 2
730 770 1
731 732 1
731 771 3
732 733 5
732 772 1
733 734 1
733 773 2
734 735 4
734 774 4
735 736 2
735 775 5
736 737 3
736 776 5
737 738 5
737 777 1
738 739 4
738 778 4
739 740 1
739 779 3
740 741 3
740 780 1
741 742 5
741 781 4
742 743 5
742 782 1
743 744 1
743 783 4
744 745 3
744 784 2
745 746 3
745 785 3
746 747 1
746 786 1
747 748 1
747 787 5
748 749 2
748 788 2
749 750 1
749 789 4
750 751 3
750 790 1
751 752 4
751 791 2
752 753 2
752 792 4
753 754 5
753 793 4
754 755 2
754 794 4
755 756 4
755 795 4
756 757 3
756 796 2
757 758 1
757 797 5
758 759 2
758 798 2
759 760 2
759 799 1
760 800 5
761 762 3
761 801 5
762 763 3
762 802 4
763 764 4
763 803 3
764 765 3
764 804 1
765 766 4
765 805 3
766 767 3
766 806 1
767 768 2
767 807 3
768 769 2
768 808 1
769 770 2
769 809 1
770 771 5
770 810 5
771 772 5
771 811 3
772 773 4
772 812 5
773 774 1
773 813 3
774 775 5
774 814 3
775 776 5
775 815 1
776 777 2
776 816 1
777 778 5
777 817 1
778 779 5
778 818 2
779 780 1
779 819 4
780 781 4
780 820 5
781 782 3
781 821 1
782 783 1
782 822 3
783 784 5
783 823 5
784 785 1
784 824 2
785 786 2
785 825 2
786 787 5
786 826 5
787 788 3
787 827 5
788 789 1
788 828 2
789 790 5
789 829 3
790 791 2
790 830 2
791 792 3
791 831 1
792 793 1
792 832 5
793 794 3
793 833 1
794 795 1
794 834 1
795 796 5
795 835 3
796 797 1
796 836 2
797 798 1
797 837 1
798 799 5
798 838 2
799 800 2
799 839 3
800 840 4
801 802 2
801 841 3
802 803 3
802 842 2
803 804 2
803 843 1
804 805 5
804 844 2
805 806 5
805 845 4
806 807 4
806 846 1
807 808 4
807 847 4
808 809 5
808 848 5
809 810 2
809 849 5
810 811 5
810 850 5
811 812 5
811 851 1
812 813 1
812 852 4
813 814 4
813 853 5
814 815 5
814 854 3
815 816 5
815 855 5
816 817 3
816 856 4
817 818 1
817 857 5
818 819 5
818 858 3
819 820 2
819 859 2
820 821 1
820 860 3
821 822 3
821 861 1
822 823 1
822 862 4
823 824 4
823 863 2
824 825 3
824 864 2
825 826 5
825 865 5
826 827 3
826 866 4
827 828 5
827 867 5
828 829 3
828 868 2
829 830 4
829 869 4
830 831 1
830 870 2
831 832 1
831 871 2
832 833 2
832 872 3
833 834 4
833 873 3
834 835 4
834 874 5
835 836 1
835 875 2
836 837 2
836 876 4
837 838 2
837 877 5
838 839 1
838 878 1
839 840 1
839 879 1
840 880 1
841 842 2
841 881 1
842 843 2
842 882 2
843 844 1
843 883 2
844 845 5
844 884 3
845 846 3
845 885 5
846 847 4
846 886 5
847 848 5
847 887 5
848 849 2
848 888 4
849 850 1
849 889 5
850 851 2
850 890 2
851 852 5
851 891 3
852 853 2
852 892 3
853 854 5
853 893 1
854 855 4
854 894 3
855 856 3
855 895 5
856 857 3
856 896 1
857 858 5
857 897 4
858 859 5
858 898 1
859 860 2
859 899 4
860 861 5
860 900 5
861 862 1
861 901 4
862 863 5
862 902 4
863 864 5
863 903 5
864 865 5
864 904 5
865 866 3
865 905 3
866 867 3
866 906 3
867 868 3
867 907 1
868 869 5
868 908 2
869 870 1
869 909 3
870 871 3
870 910 2
871 872 2
871 911 2
872 873 2
872 912 4
873 874 1
873 913 4
874 875 2
874 914 1
875 876 5
875 915 1
876 877 1
876 916 1
877 878 1
877 917 3
878 879 3
878 918 5
879 880 1
879 919 2
880 920 1
881 882 5
881 921 1
882 883 1
882 922 3
883 884 5
883 923 5
884 885 1
884 924 5
885 886 5
885 925 4
886 887 2
886 926 1
887 888 4
887 927 1
888 889 1
888 928 1
889 890 3
889 929 1
890 891 1
890 930 5
891 892 5
891 931 5
892 893 3
892 932 1
893 894 2
893 933 5
894 895 5
894 934 3
895 896 2
895 935 1
896 897 4
896 936 1
897 898 2
897 937 2
898 899 5
898 938 2
899 900 2
899 939 3
900 901 2
900 940 3
901 902 5
901 941 3
902 903 2
902 942 3
903 904 5
903 943 5
904 905 3
904 944 2
905 906 1
905 945 2
906 907 2
906 946 4
907 908 5
907 947 5
908 909 3
908 948 4
909 910 3
909 949 2
910 911 2
910 950 5
911 912 5
911 951 3
912 913 1
912 952 5
913 914 1
913 953 4
914 915 4
914 954 5
915 916 5
915 955 5
916 917 3
916 956 5
917 918 1
917 957 5
918 919 5
918 958 5
919 920 2
919 959 4
920 960 2
921 922 3
921 961 2
922 923 1
922 962 1
923 924 2
923 963 3
924 925 1
924 964 4
925 926 2
925 965 4
926 927 1
926 966 5
927 928 4
927 967 3
928 929 3
928 968 3
929 930 5
929 969 5
930 931 5
930 970 5
931 932 3
931 971 5
932 933 5
932 972 3
933 934 1
933 973 4
934 935 3
934 974 4
935 936 2
935 975 2
936 937 1
936 976 4
937 938 3
937 977 4
938 939 5
938 978 4
939 940 4
939 979 1
940 941 4
940 980 4
941 942 2
941 981 2
942 943 4
942 982 5
943 944 4
943 983 2
944 945 5
944 984 5
945 946 1
945 985 2
946 947 3
946 986 1
947 948 2
947 987 5
948 949 4
948 988 1
949 950 5
949 989 5
950 951 4
950 990 1
951 952 2
951 991 4
952 953 1
952 992 2
953 954 3
953 993 1
954 955 4
954 994 1
955 956 1
955 995 4
956 957 2
956 996 4
957 958 5
957 997 4
958 959 3
958 998 4
959 960 5
959 999 1
960 1000 1
961 962 5
961 1001 4
962 963 1
962 1002 2
963 964 1
963 1003 5
964 965 3
964 1004 4
965 966 5
965 1005 4
966 967 4
966 1006 5
967 968 2
967 1007 3
968 969 2
968 1008 2
969 970 4
969 1009 1
970 971 4
970 1010 4
971 972 5
971 1011 5
972 973 5
972 1012 1
973 974 3
973 1013 3
974 975 1
974 1014 1
975 976 3
975 1015 2
976 977 1
976 1016 5
977 978 3
977 1017 1
978 979 2
978 1018 3
979 980 5
979 1019 4
980 981 4
980 1020 4
981 982 1
981 1021 4
982 983 2
982 1022 2
983 984 1
983 1023 1
984 985 1
984 1024 4
985 986 4
985 1025 3
986 987 5
986 1026 4
987 988 4
987 1027 5
988 989 2
988 1028 2
989 990 5
989 1029 3
990 991 5
990 1030 1
991 992 1
991 1031 5
992 993 4
992 1032 4
993 994 1
993 1033 2
994 995 1
994 1034 5
995 996 2
995 1035 3
996 997 2
996 1036 2
997 998 4
997 1037 3
998 999 2
998 1038 3
999 1000 5
999 1039 3
1000 1040 3
1001 1002 2
1001 1041 2
1002 1003 5
1002 1042 4
1003 1004 3
1003 1043 4
1004 1005 4
1004 1044 2
1005 1006 4
1005 1045 4
1006 1007 3
1006 1046 1
1007 1008 3
1007 1047 2
1008 1009 4
1008 1048 3
1009 1010 1
1009 1049 1
1010 1011 5
1010 1050 5
1011 1012 5
1011 1051 5
1012 1013 4
1012 1052 5
1013 1014 1
1013 1053 1
1014 1015 3
1014 1054 3
1015 1016 4
1015 1055 4
1016 1017 3
1016 1056 5
1017 1018 5
1017 1057 2
1018 1019 1
1018 1058 3
1019 1020 3
1019 1059 2
1020 1021 3
1020 1060 2
1021 1022 1
1021 1061 1
1022 1023 1
1022 1062 5
1023 1024 4
1023 1063 5
1024 1025 4
1024 1064 5
1025 1026 1
1025 1065 2
1026 1027 5
1026 1066 4
1027 1028 2
1027 1067 3
1028 1029 1
1028 1068 3
1029 1030 3
1029 1069 5
1030 1031 2
1030 1070 2
1031 1032 1
1031 1071 5
1032 1033 1
1032 1072 5
1033 1034 2
1033 1073 3
1034 1035 3
1034 1074 2
1035 1036 2
1035 1075 3
1036 1037 4
1036 1076 4
1037 1038 1
1037 1077 4
1038 1039 4
1038 1078 5
1039 1040 4
1039 1079 3
1040 1080 1
1041 1042 1
1041 1081 1
1042 1043 4
1042 1082 5
1043 1044 5
1043 1083 2
1044 1045 3
1044 1084 4
1045 1046 3
1045 1085 4
1046 1047 2
1046 1086 1
1047 1048 3
1047 1087 1
1048 1049 2
1048 1088 2
1049 1050 3
1049 1089 3
1050 1051 3
1050 1090 2
1051 1052 5
1051 1091 4
1052 1053 3
1052 1092 4
1053 1054 5
1053 1093 3
1054 1055 1
1054 1094 3
1055 1056 4
1055 1095 1
1056 1057 5
1056 1096 1
1057 1058 2
1057 1097 4
1058 1059 3
1058 1098 1
1059 1060 2
1059 1099 5
1060 1061 4
1060 1100 1
1061 1062 3
1061 1101 3
1062 1063 3
1062 1102 2
1063 1064 3
1063 1103 2
1064 1065 2
1064 1104 2
1065 1066 3
1065 1105 1
1066 1067 5
1066 1106 5
1067 1068 4
1067 1107 4
1068 1069 2
1068 1108 4
1069 1070 3
1069 1109 5
1070 1071 5
1070 1110 4
1071 1072 1
1071 1111 2
1072 1073 3
1072 1112 1
1073 1074 3
1073 1113 2
1074 1075 5
1074 1114 1
1075 1076 1
1075 1115 5
1076 1077 2
1076 1116 2
1077 1078 5
1077 1117 4
1078 1079 4
1078 1118 5
1079 1080 1
1079 1119 2
1080 1120 4
1081 1082 1
1081 1121 5
1082 1083 5
1082 1122 3
1083 1084 2
1083 1123 2
1084 1085 2
1084 1124 1
1085 1086 1
1085 1125 4
1086 1087 5
1086 1126 4
1087 1088 3
1087 1127 5
1088 1089 4
1088 1128 1
1089 1090 5
1089 1129 1
1090 1091 3
1090 1130 1
1091 1092 3
1091 1131 4
1092 1093 4
1092 1132 3
1093 1094 5
1093 1133 5
1094 1095 5
1094 1134 3
1095 1096 1
1095 1135 2
1096 1097 5
1096 1136 3
1097 1098 3
1097 1137 4
1098 1099 3
1098 1138 5
1099 1100 2
1099 1139 4
1100 1101 2
1100 1140 4
1101 1102 1
1101 1141 4
1102 1103 4
1102 1142 1
1103 1104 1
1103 1143 1
1104 1105 2
1104 1144 4
1105 1106 1
1105 1145 3
1106 1107 4
1106 1146 4
1107 1108 4
1107 1147 3
1108 1109 5
1108 1148 3
1109 1110 4
1109 1149 5
1110 1111 3
1110 1150 5
1111 1112 2
1111 1151 2
1112 1113 5
1112 1152 4
1113 1114 2
1113 1153 4
1114 1115 3
1114 1154 5
1115 1116 2
1115 1155 1
1116 1117 3
1116 1156 2
1117 1118 2
1117 1157 3
1118 1119 5
1118 1158 4
1119 1120 3
1119 1159 1
1120 1160 5
1121 1122 4
1121 1161 5
1122 1123 3
1122 1162 1
1123 1124 5
1123 1163 2
1124 1125 5
1124 1164 5
1125 1126 1
1125 1165 4
1126 1127 3
1126 1166 1
1127 1128 1
1127 1167 5
1128 1129 1
1128 1168 4
1129 1130 3
1129 1169 2
1130 1131 4
1130 1170 5
1131 1132 2
1131 1171 1
1132 1133 3
1132 1172 5
1133 1134 1
1133 1173 5
1134 1135 1
1134 1174 4
1135 1136 5
1135 1175 4
1136 1137 3
1136 1176 1
1137 1138 3
1137 1177 2
1138 1139 5
1138 1178 3
1139 1140 2
1139 1179 3
1140 1141 3
1140 1180 4
1141 1142 3
1141 1181 2
1142 1143 2
1142 1182 5
1143 1144 1
1143 1183 5
1144 1145 2
1144 1184 5
1145 1146 3
1145 1185 3
1146 1147 3
1146 1186 1
1147 1148 1
1147 1187 1
1148 1149 1
1148 1188 1
1149 1150 4
1149 1189 2
1150 1151 3
1150 1190 4
1151 1152 2
1151 1191 1
1152 1153 1
1152 1192 4
1153 1154 4
1153 1193 2
1154 1155 4
1154 1194 2
1155 1156 5
1155 1195 2
1156 1157 5
1156 1196 3
1157 1158 4
1157 1197 5
1158 1159 2
1158 1198 3
1159 1160 3
1159 1199 1
1160 1200 1
1161 1162 5
1161 1201 1
1162 1163 4
1162 1202 4
1163 1164 2
1163 1203 5
1164 1165 5
1164 1204 5
1165 1166 3
1165 1205 5
1166 1167 3
1166 1206 5
1167 1168 1
1167 1207 3
1168 1169 1
1168 1208 1
1169 1170 3
1169 1209 2
1170 1171 3
1170 1210 5
1171 1172 4
1171 1211 3
1172 1173 3
1172 1212 3
1173 1174 2
1173 1213 3
1174 1175 5
1174 1214 5
1175 1176 1
1175 1215 4
1176 1177 2
1176 1216 3
1177 1178 4
1177 1217 3
1178 1179 5
1178 1218 3
1179 1180 4
1179 1219 1
1180 1181 3
1180 1220 5
1181 1182 2
1181 1221 4
1182 1183 4
1182 1222 3
1183 1184 2
1183 1223 2
1184 1185 5
1184 1224 4
1185 1186 5
1185 1225 3
1186 1187 3
1186 1226 3
1187 1188 2
1187 1227 3
1188 1189 4
1188 1228 5
1189 1190 2
1189 1229 1
1190 1191 2
1190 1230 5
1191 1192 5
1191 1231 5
1192 1193 4
1192 1232 4
1193 1194 2
1193 1233 4
1194 1195 3
1194 1234 3
1195 1196 4
1195 1235 3
1196 1197 2
1196 1236 5
1197 1198 3
1197 1237 4
1198 1199 4
1198 1238 2
1199 1200 2
1199 1239 3
1200 1240 3
1201 1202 2
1201 1241 5
1202 1203 5
1202 1242 1
1203 1204 3
1203 1243 2
1204 1205 1
1204 1244 3
1205 1206 1
1205 1245 2
1206 1207 3
1206 1246 3
1207 1208 4
1207 1247 2
1208 1209 3
1208 1248 1
1209 1210 4
1209 1249 5
1210 1211 3
1210 1250 4
1211 1212 3
1211 1251 5
1212 1213 4
1212 1252 5
1213 1214 4
1213 1253 5
1214 1215 1
1214 1254 1
1215 1216 3
1215 1255 4
1216 1217 1
1216 1256 4
1217 1218 3
1217 1257 3
1218 1219 2
1218 1258 3
1219 1220 3
1219 1259 2
1220 1221 1
1220 1260 3
1221 1222 1
1221 1261 4
1222 1223 1
1222 1262 2
1223 1224 5
1223 1263 1
1224 1225 5
1224 1264 2
1225 1226 2
1225 1265 4
1226 1227 1
1226 1266 3
1227 1228 3
1227 1267 4
1228 1229 4
1228 1268 3
1229 1230 3
1229 1269 1
1230 1231 4
1230 1270 5
1231 1232 1
1231 1271 1
1232 1233 4
1232 1272 1
1233 1234 2
1233 1273 1
1234 1235 5
1234 1274 3
1235 1236 5
1235 1275 5
1236 1237 4
1236 1276 2
1237 1238 4
1237 1277 2
1238 1239 2
1238 1278 1
1239 1240 1
1239 1279 1
1240 1280 1
1241 1242 5
1241 1281 2
1242 1243 3
1242 1282 2
1243 1244 2
1243 1283 4
1244 1245 5
1244 1284 4
1245 1246 2
1245 1285 2
1246 1247 4
1246 1286 1
1247 1248 4
1247 1287 5
1248 1249 3
1248 1288 5
1249 1250 4
1249 1289 3
1250 1251 5
1250 1290 2
1251 1252 5
1251 1291 2
1252 1253 1
1252 1292 4
1253 1254 1
1253 1293 3
1254 1255 2
1254 1294 3
1255 1256 1
1255 1295 5
1256 1257 5
1256 1296 2
1257 1258 2
1257 1297 2
1258 1259 2
1258 1298 3
1259 1260 2
1259 1299 2
1260 1261 2
1260 1300 2
1261 1262 2
1261 1301 5
1262 1263 1
1262 1302 3
1263 1264 3
1263 1303 4
1264 1265 1
1264 1304 1
1265 1266 4
1265 1305 2
1266 1267 2
1266 1306 4
1267 1268 3
1267 1307 3
1268 1269 1
1268 1308 2
1269 1270 4
1269 1309 3
1270 1271 4
1270 1310 3
1271 1272 3
1271 1311 1
1272 1273 2
1272 1312 4
1273 1274 3
1273 1313 5
1274 1275 4
1274 1314 1
1275 1276 1
1275 1315 5
1276 1277 5
1276 1316 3
1277 1278 5
1277 1317 2
1278 1279 1
1278 1318 3
1279 1280 2
1279 1319 5
1280 1320 5
1281 1282 2
1281 1321 5
1282 1283 4
1282 1322 2
1283 1284 5
1283 1323 2
1284 1285 5
1284 1324 3
1285 1286 3
1285 1325 1
1286 1287 1
1286 1326 1
1287 1288 4
1287 1327 5
1288 1289 3
1288 1328 5
1289 1290 5
1289 1329 2
1290 1291 3
1290 1330 4
1291 1292 2
1291 1331 1
1292 1293 3
1292 1332 4
1293 1294 1
1293 1333 1
1294 1295 2
1294 1334 3
1295 1296 3
1295 1335 1
1296 1297 3
1296 1336 2
1297 1298 1
1297 1337 3
1298 1299 1
1298 1338 4
1299 1300 3
1299 1339 4
1300 1301 3
1300 1340 4
1301 1302 2
1301 1341 1
1302 1303 4
1302 1342 2
1303 1304 2
1303 1343 1
1304 1305 5
1304 1344 1
1305 1306 4
1305 1345 2
1306 1307 1
1306 1346 3
1307 1308 2
1307 1347 1
1308 1309 1
1308 1348 1
1309 1310 4
1309 1349 5
1310 1311 5
1310 1350 1
1311 1312 2
1311 1351 4
1312 1313 5
1312 1352 4
1313 1314 3
1313 1353 4
1314 1315 3
1314 1354 4
1315 1316 5
1315 1355 1
1316 1317 5
1316 1356 5
1317 1318 2
1317 1357 2
1318 1319 3
1318 1358 1
1319 1320 3
1319 1359 1
1320 1360 4
1321 1322 2
1321 1361 1
1322 1323 5
1322 1362 4
1323 1324 3
1323 1363 1
1324 1325 5
1324 1364 1
1325 1326 2
1325 1365 1
1326 1327 2
1326 1366 4
1327 1328 2
1327 1367 1
1328 1329 2
1328 1368 1
1329 1330 4
1329 1369 2
1330 1331 2
1330 1370 2
1331 1332 4
1331 1371 4
1332 1333 3
1332 1372 5
1333 1334 2
1333 1373 3
1334 1335 5
1334 1374 3
1335 1336 2
1335 1375 3
1336 1337 1
1336 1376 4
1337 1338 2
1337 1377 3
1338 1339 3
1338 1378 4
1339 1340 1
1339 1379 2
1340 1341 2
1340 1380 4
1341 1342 5
1341 1381 3
1342 1343 3
1342 1382 3
1343 1344 5
1343 1383 1
1344 1345 4
1344 1384 5
1345 1346 4
1345 1385 2
1346 1347 4
1346 1386 2
1347 1348 3
1347 1387 5
1348 1349 1
1348 1388 4
1349 1350 2
1349 1389 2
1350 1351 5
1350 1390 4
1351 1352 3
1351 1391 3
1352 1353 5
1352 1392 5
1353 1354 4
1353 1393 5
1354 1355 1
1354 1394 4
1355 1356 3
1355 1395 1
1356 1357 2
1356 1396 3
1357 1358 5
1357 1397 3
1358 1359 4
1358 1398 1
1359 1360 5
1359 1399 5
1360 1400 1
1361 1362 5
1361 1401 1
1362 1363 3
1362 1402 5
1363 1364 4
1363 1403 3
1364 1365 3
1364 1404 3
1365 1366 1
1365 1405 5
1366 1367 4
1366 1406 1
1367 1368 1
1367 1407 3
1368 1369 3
1368 1408 3
1369 1370 5
1369 1409 1
1370 1371 5
1370 1410 2
1371 1372 3
1371 1411 5
1372 1373 5
1372 1412 4
1373 1374 2
1373 1413 3
1374 1375 1
1374 1414 4
1375 1376 2
1375 1415 2
1376 1377 1
1376 1416 5
1377 1378 3
1377 1417 1
1378 1379 2
1378 1418 5
1379 1380 2
1379 1419 2
1380 1381 2
1380 1420 2
1381 1382 1
1381 1421 5
1382 1383 3
1382 1422 3
1383 1384 2
1383 1423 2
1384 1385 4
1384 1424 2
1385 1386 2
1385 1425 2
1386 1387 1
1386 1426 1
1387 1388 2
1387 1427 2
1388 1389 4
1388 1428 2
1389 1390 3
1389 1429 3
1390 1391 2
1390 1430 1
1391 1392 4
1391 1431 5
1392 1393 5
1392 1432 3
1393 1394 1
1393 1433 1
1394 1395 5
1394 1434 2
1395 1396 2
1395 1435 2
1396 1397 4
1396 1436 4
1397 1398 5
1397 1437 5
1398 1399 3
1398 1438 5
1399 1400 1
1399 1439 3
1400 1440 5
1401 1402 3
1401 1441 5
1402 1403 1
1402 1442 4
1403 1404 1
1403 1443 2
1404 1405 4
1404 1444 4
1405 1406 4
1405 1445 5
1406 1407 3
1406 1446 4
1407 1408 3
1407 1447 4
1408 1409 2
1408 1448 1
1409 1410 4
1409 1449 3
1410 1411 3
1410 1450 5
1411 1412 2
1411 1451 1
1412 1413 2
1412 1452 2
1413 1414 4
1413 1453 3
1414 1415 5
1414 1454 5
1415 1416 5
1415 1455 3
1416 1417 2
1416 1456 5
1417 1418 3
1417 1457 3
1418 1419 2
1418 1458 2
1419 1420 2
1419 1459 5
1420 1421 4
1420 1460 1
1421 1422 2
1421 1461 2
1422 1423 5
1422 1462 2
1423 1424 2
1423 1463 3
1424 1425 2
1424 1464 3
1425 1426 1
1425 1465 1
1426 1427 2
1426 1466 3
1427 1428 4
1427 1467 2
1428 1429 5
1428 1468 5
1429 1430 3
1429 1469 5
1430 1431 4
1430 1470 3
1431 1432 1
1431 1471 1
1432 1433 2
1432 1472 2
1433 1434 3
1433 1473 3
1434 1435 3
1434 1474 4
1435 1436 5
1435 1475 1
1436 1437 2
1436 1476 2
1437 1438 4
1437 1477 5
1438 1439 5
1438 1478 4
1439 1440 3
1439 1479 5
1440 1480 1
1441 1442 4
1441 1481 2
1442 1443 1
1442 1482 3
1443 1444 1
1443 1483 1
1444 1445 1
1444 1484 3
1445 1446 3
1445 1485 5
1446 1447 5
1446 1486 4
1447 1448 4
1447 1487 1
1448 1449 4
1448 1488 2
1449 1450 5
1449 1489 2
1450 1451 5
1450 1490 1
1451 1452 4
1451 1491 2
1452 1453 2
1452 1492 3
1453 1454 1
1453 1493 4
1454 1455 3
1454 1494 4
1455 1456 2
1455 1495 4
1456 1457 4
1456 1496 3
1457 1458 5
1457 1497 2
1458 1459 2
1458 1498 5
1459 1460 3
1459 1499 1
1460 1461 4
1460 1500 4
1461 1462 1
1461 1501 1
1462 1463 3
1462 1502 5
1463 1464 2
1463 1503 4
1464 1465 5
1464 1504 5
1465 1466 4
1465 1505 2
1466 1467 4
1466 1506 5
1467 1468 2
1467 1507 2
1468 1469 4
1468 1508 5
1469 1470 4
1469 1509 2
1470 1471 2
1470 1510 1
1471 1472 5
1471 1511 1
1472 1473 5
1472 1512 5
1473 1474 4
1473 1513 1
1474 1475 1
1474 1514 5
1475 1476 5
1475 1515 4
1476 1477 4
1476 1516 2
1477 1478 5
1477 1517 4
1478 1479 4
1478 1518 2
1479 1480 3
1479 1519 2
1480 1520 3
1481 1482 1
1481 1521 3
1482 1483 1
1482 1522 2
1483 1484 2
1483 1523 5
1484 1485 3
1484 1524 4
1485 1486 1
1485 1525 2
1486 1487 5
1486 1526 3
1487 1488 5
1487 1527 5
1488 1489 5
1488 1528 5
1489 1490 4
1489 1529 2
1490 1491 4
1490 1530 4
1491 1492 4
1491 1531 4
1492 1493 1
1492 1532 5
1493 1494 2
1493 1533 3
1494 1495 1
1494 1534 1
1495 1496 2
1495 1535 4
1496 1497 5
1496 1536 2
1497 1498 1
1497 1537 2
1498 1499 3
1498 1538 3
1499 1500 4
1499 1539 3
1500 1501 2
1500 1540 5
1501 1502 4
1501 1541 2
1502 1503 4
1502 1542 1
1503 1504 3
1503 1543 3
1504 1505 1
1504 1544 5
1505 1506 2
1505 1545 3
1506 1507 1
1506 1546 1
1507 1508 2
1507 1547 2
1508 1509 2
1508 1548 5
1509 1510 5
1509 1549 1
1510 1511 3
1510 1550 3
1511 1512 5
1511 1551 5
1512 1513 2
1512 1552 1
1513 1514 4
1513 1553 4
1514 1515 5
1514 1554 4
1515 1516 3
1515 1555 3
1516 1517 4
1516 1556 3
1517 1518 1
1517 1557 2
1518 1519 2
1518 1558 4
1519 1520 4
1519 1559 1
1520 1560 5
1521 1522 1
1521 1561 3
1522 1523 2
1522 1562 5
1523 1524 5
1523 1563 4
1524 1525 1
1524 1564 5
1525 1526 4
1525 1565 5
1526 1527 3
1526 1566 2
1527 1528 1
1527 1567 5
1528 1529 4
1528 1568 4
1529 1530 5
1529 1569 2
1530 1531 4
1530 1570 2
1531 1532 1
1531 1571 3
1532 1533 1
1532 1572 3
1533 1534 3
1533 1573 3
1534 1535 5
1534 1574 5
1535 1536 3
1535 1575 1
1536 1537 5
1536 1576 1
1537 1538 1
1537 1577 5
1538 1539 2
1538 1578 3
1539 1540 1
1539 1579 3
1540 1541 1
1540 1580 5
1541 1542 4
1541 1581 4
1542 1543 4
1542 1582 1
1543 1544 2
1543 1583 3
1544 1545 1
1544 1584 4
1545 1546 4
1545 1585 2
1546 1547 2
1546 1586 5
1547 1548 1
1547 1587 2
1548 1549 3
1548 1588 5
1549 1550 1
1549 1589 3
1550 1551 2
1550 1590 3
1551 1552 1
1551 1591 4
1552 1553 5
1552 1592 1
1553 1554 2
1553 1593 5
1554 1555 4
1554 1594 4
1555 1556 4
1555 1595 4
1556 1557 5
1556 1596 3
1557 1558 3
1557 1597 2
1558 1559 4
1558 1598 4
1559 1560 2
1559 1599 4
1560 1600 2
1561 1562 5
1562 1563 2
1563 1564 3
1564 1565 2
1565 1566 5
1566 1567 4
1567 1568 3
1568 1569 2
1569 1570 5
1570 1571 4
1571 1572 2
1572 1573 4
1573 1574 5
1574 1575 1
1575 1576 5
1576 1577 4
1577 1578 5
1578 1579 5
1579 1580 5
1580 1581 4
1581 1582 5
1582 1583 5
1583 1584 4
1584 1585 2
1585 1586 1
1586 1587 1
1587 1588 3
1588 1589 1
1589 1590 5
1590 1591 5
1591 1592 1
1592 1593 1
1593 1594 3
1594 1595 1
1595 1596 3
1596 1597 5
1597 1598 4
1598 1599 4
1599 1600 4
